Minimize
  - 10 y_0 - 6 y_1 - 7 y_2 - 3 y_3 - 9 y_4 - 3 y_5 - 7 y_7 - 2 y_8 - 8 y_9
   - 5 y_10 - 3 y_11 - 12 y_12 - 9 y_13 - 9 y_14 - 5 y_15 - 5 y_16
   - 12 y_17 - 8 y_18 - 6 y_19 - 3 y_20 - 6 y_21 - 12 y_22 - 10 y_23
   - 7 y_24 - 8 y_25 - 3 y_26 - 6 y_27 - 8 y_28 - 10 y_29 - 6 y_30
   - 11 y_31 - 10 y_32 - 7 y_33 - y_34 - 8 y_35 - y_36 - 9 y_37 - 8 y_38
   - 2 y_39 - 5 y_40 - 3 y_41 - 4 y_42 - 6 y_43 - 8 y_44 - 9 y_45 - 12 y_46
   - 10 y_47 - 4 y_48 - 8 y_49 + 334 Constant
Subject To
 c_0: y_30 = 1
 c_1_0: y_0 + y_17 + y_23 + y_29 + y_31 + y_37 + y_46 >= 1
 c_1_1: y_1 + y_2 + y_16 + y_28 + y_30 + y_38 >= 1
 c_1_2: y_1 + y_2 + y_14 + y_16 + y_30 + y_38 + y_45 >= 1
 c_1_3: y_3 + y_8 + y_20 + y_26 + y_36 + y_41 >= 1
 c_1_4: y_4 + y_18 + y_29 + y_32 + y_35 + y_47 >= 1
 c_1_5: y_5 + y_11 + y_34 + y_39 + y_48 >= 1
 c_1_6: y_6 + y_34 + y_36 + y_39 >= 1
 c_1_7: y_7 + y_19 >= 1
 c_1_8: y_3 + y_8 + y_20 + y_26 + y_36 + y_41 >= 1
 c_1_9: y_9 + y_23 + y_24 + y_25 + y_37 + y_44 >= 1
 c_1_10: y_10 + y_11 + y_15 + y_21 + y_27 + y_40 + y_42 >= 1
 c_1_11: y_5 + y_10 + y_11 + y_34 + y_39 + y_41 + y_42 >= 1
 c_1_12: y_12 + y_17 + y_22 + y_31 >= 1
 c_1_13: y_13 + y_25 + y_28 + y_44 >= 1
 c_1_14: y_2 + y_14 + y_28 + y_38 + y_45 >= 1
 c_1_15: y_10 + y_15 + y_21 + y_27 + y_40 + y_42 >= 1
 c_1_16: y_1 + y_2 + y_16 + y_30 + y_48 >= 1
 c_1_17: y_0 + y_12 + y_17 + y_22 + y_23 + y_31 + y_46 >= 1
 c_1_18: y_4 + y_18 + y_29 + y_35 >= 1
 c_1_19: y_7 + y_19 + y_21 + y_27 + y_35 + y_40 >= 1
 c_1_20: y_3 + y_8 + y_20 + y_26 + y_41 >= 1
 c_1_21: y_10 + y_15 + y_19 + y_21 + y_27 + y_35 + y_40 + y_42 >= 1
 c_1_22: y_12 + y_17 + y_22 + y_31 >= 1
 c_1_23: y_0 + y_9 + y_17 + y_23 + y_31 + y_37 >= 1
 c_1_24: y_9 + y_24 + y_25 + y_28 + y_30 + y_44 >= 1
 c_1_25: y_9 + y_13 + y_24 + y_25 + y_28 + y_30 + y_44 >= 1
 c_1_26: y_3 + y_8 + y_20 + y_26 + y_36 + y_41 >= 1
 c_1_27: y_10 + y_15 + y_19 + y_21 + y_27 + y_40 + y_42 >= 1
 c_1_28: y_1 + y_13 + y_14 + y_24 + y_25 + y_28 + y_30 + y_44 + y_45 >= 1
 c_1_29: y_0 + y_4 + y_18 + y_29 + y_47 >= 1
 c_1_30: y_1 + y_2 + y_16 + y_24 + y_25 + y_28 + y_30 + y_44 >= 1
 c_1_31: y_0 + y_12 + y_17 + y_22 + y_23 + y_31 >= 1
 c_1_32: y_4 + y_32 + y_47 >= 1
 c_1_33: y_33 + y_43 + y_49 >= 1
 c_1_34: y_5 + y_6 + y_11 + y_34 + y_36 + y_39 >= 1
 c_1_35: y_4 + y_18 + y_19 + y_21 + y_35 + y_37 >= 1
 c_1_36: y_3 + y_6 + y_8 + y_26 + y_34 + y_36 + y_39 >= 1
 c_1_37: y_0 + y_9 + y_23 + y_35 + y_37 >= 1
 c_1_38: y_1 + y_2 + y_14 + y_38 + y_45 >= 1
 c_1_39: y_5 + y_6 + y_11 + y_34 + y_36 + y_39 >= 1
 c_1_40: y_10 + y_15 + y_19 + y_21 + y_27 + y_40 + y_42 >= 1
 c_1_41: y_3 + y_8 + y_11 + y_20 + y_26 + y_41 + y_42 >= 1
 c_1_42: y_10 + y_11 + y_15 + y_21 + y_27 + y_40 + y_41 + y_42 >= 1
 c_1_43: y_33 + y_43 >= 1
 c_1_44: y_9 + y_13 + y_24 + y_25 + y_28 + y_30 + y_44 >= 1
 c_1_45: y_2 + y_14 + y_28 + y_38 + y_45 >= 1
 c_1_46: y_0 + y_17 + y_46 >= 1
 c_1_47: y_4 + y_29 + y_32 + y_47 >= 1
 c_1_48: y_5 + y_16 + y_48 >= 1
 c_1_49: y_33 + y_49 >= 1
Bounds
 Constant = 1
Binaries
 y_0 y_1 y_2 y_3 y_4 y_5 y_6 y_7 y_8 y_9 y_10 y_11 y_12 y_13 y_14 y_15 y_16
 y_17 y_18 y_19 y_20 y_21 y_22 y_23 y_24 y_25 y_26 y_27 y_28 y_29 y_30 y_31
 y_32 y_33 y_34 y_35 y_36 y_37 y_38 y_39 y_40 y_41 y_42 y_43 y_44 y_45 y_46
 y_47 y_48 y_49
End
